examples/data/binpacking/Istanze/BPPC_1_1_3.txt
120 150
1 38
2 100 3 17 55 59 66 95 119
3 60 8 9 13 17 47 49 55 59 63 66 69 70 77 78 81 92 95 96 106 108 116 119
4 42
5 20
6 69
7 24
8 23 13 17 49 55 59 63 66 78 81 95 119
9 92 17 59 66 95 119
10 32
11 84
12 36
13 65 17 49 55 59 63 66 78 81 95 119
14 84
15 34
16 68
17 64 21 40 42 47 49 54 55 59 63 66 69 70 77 78 81 92 95 96 106 107 108 110 116 119
18 33
19 69
20 27
21 47
22 21
23 85
24 88
25 59
26 61
27 50
28 53
29 37
30 75
31 64
32 84
33 74
34 57
35 83
36 28
37 31
38 97
39 61
40 36 59
41 46
42 37
43 96
44 80
45 53
46 51
47 68 55 59 66 95 119
48 90
49 64 55 59 63 66 78 81 95 119
50 81
51 66
52 67
53 80
54 37
55 92 59 63 66 69 77 78 81 95 96 116 119
56 67
57 64
58 31
59 94 63 66 69 70 77 78 81 92 95 96 106 107 108 110 116 119
60 45
61 80
62 28
63 76 66 78 81 95 119
64 29
65 64
66 38 69 70 77 78 81 92 95 96 106 108 116 119
67 48
68 40
69 29 81 95 119
70 44 95 119
71 81
72 35
73 51
74 48
75 67
76 24
77 46 95 119
78 38 81 95 119
79 76
80 22
81 30 95 119
82 67
83 45
84 41
85 29
86 41
87 79
88 21
89 25
90 90
91 62
92 34 95 119
93 73
94 50
95 79 96 106 108 116 119
96 66 119
97 59
98 42
99 90
100 79
101 70
102 66
103 80
104 35
105 62
106 98 119
107 97
108 37 119
109 32
110 75
111 91
112 91
113 48
114 26
115 23
116 32 119
117 100
118 46
119 29
120 26
